p wcnf 111 131
9000 -1 2 0
9000 -1 3 0
9000 -1 4 0
9000 -1 5 0
9000 -1 6 0
9000 -1 7 0
9000 -1 8 0
9000 -1 9 0
9000 -1 10 0
9000 -1 11 0
1500 12 -2 -2 0
1500 13 -2 -3 0
1500 14 -2 -4 0
1500 15 -2 -5 0
1500 16 -2 -6 0
1500 17 -2 -7 0
1500 18 -2 -8 0
1500 19 -2 -9 0
1500 20 -2 -10 0
1500 21 -2 -11 0
1500 22 -3 -2 0
1500 23 -3 -3 0
1500 24 -3 -4 0
1500 25 -3 -5 0
1500 26 -3 -6 0
1500 27 -3 -7 0
1500 28 -3 -8 0
1500 29 -3 -9 0
1500 30 -3 -10 0
1500 31 -3 -11 0
1500 32 -4 -2 0
1500 33 -4 -3 0
1500 34 -4 -4 0
1500 35 -4 -5 0
1500 36 -4 -6 0
1500 37 -4 -7 0
1500 38 -4 -8 0
1500 39 -4 -9 0
1500 40 -4 -10 0
1500 41 -4 -11 0
1500 42 -5 -2 0
1500 43 -5 -3 0
1500 44 -5 -4 0
1500 45 -5 -5 0
1500 46 -5 -6 0
1500 47 -5 -7 0
1500 48 -5 -8 0
1500 49 -5 -9 0
1500 50 -5 -10 0
1500 51 -5 -11 0
1500 52 -6 -2 0
1500 53 -6 -3 0
1500 54 -6 -4 0
1500 55 -6 -5 0
1500 56 -6 -6 0
1500 57 -6 -7 0
1500 58 -6 -8 0
1500 59 -6 -9 0
1500 60 -6 -10 0
1500 61 -6 -11 0
1500 62 -7 -2 0
1500 63 -7 -3 0
1500 64 -7 -4 0
1500 65 -7 -5 0
1500 66 -7 -6 0
1500 67 -7 -7 0
1500 68 -7 -8 0
1500 69 -7 -9 0
1500 70 -7 -10 0
1500 71 -7 -11 0
1500 72 -8 -2 0
1500 73 -8 -3 0
1500 74 -8 -4 0
1500 75 -8 -5 0
1500 76 -8 -6 0
1500 77 -8 -7 0
1500 78 -8 -8 0
1500 79 -8 -9 0
1500 80 -8 -10 0
1500 81 -8 -11 0
1500 82 -9 -2 0
1500 83 -9 -3 0
1500 84 -9 -4 0
1500 85 -9 -5 0
1500 86 -9 -6 0
1500 87 -9 -7 0
1500 88 -9 -8 0
1500 89 -9 -9 0
1500 90 -9 -10 0
1500 91 -9 -11 0
1500 92 -10 -2 0
1500 93 -10 -3 0
1500 94 -10 -4 0
1500 95 -10 -5 0
1500 96 -10 -6 0
1500 97 -10 -7 0
1500 98 -10 -8 0
1500 99 -10 -9 0
1500 100 -10 -10 0
1500 101 -10 -11 0
1500 102 -11 -2 0
1500 103 -11 -3 0
1500 104 -11 -4 0
1500 105 -11 -5 0
1500 106 -11 -6 0
1500 107 -11 -7 0
1500 108 -11 -8 0
1500 109 -11 -9 0
1500 110 -11 -10 0
1500 111 -11 -11 0
45000 1 0
1200 -2 0
1200 -3 0
1200 -4 0
1200 -5 0
1200 -6 0
1200 -7 0
1200 -8 0
1200 -9 0
1200 -10 0
1200 -11 0
1 -12 0
1 -23 0
1 -34 0
1 -45 0
1 -56 0
1 -67 0
1 -78 0
1 -89 0
1 -100 0
1 -111 0
